Maximize
  - 3.7680661203992 edge_0_1_0_0 - 2.7124120241388 edge_0_2_0_0
   - 3.4643181365312 edge_0_3_0_0 - 2.8291519086024 edge_0_4_0_0
   - 3.1336312884291 edge_0_5_0_0 - 2.9329016442767 edge_0_6_0_0
   - 1.9428075109214 edge_0_7_0_0 - 3.330417453079201 edge_0_10_0_0
   - 4.6473703791502 edge_0_12_0_0 - 1.885161725592 edge_0_13_0_0
   + 0.5507169231038163 edge_1_2_0_0 - 0.3874000914142302 edge_1_3_0_0
   - 0.6108833920399697 edge_1_4_0_0 - 0.6254166388982907 edge_1_5_0_0
   - 0.9931240959936523 edge_1_6_0_0 - 0.9967657623467122 edge_1_7_0_0
   - 0.0843854702372686 edge_1_8_0_0 - 1.141105508004397 edge_1_12_0_0
   - 1.212458021821565 edge_1_13_0_0 + 1.142348417084751 edge_2_1_0_0
   + 0.6190690556361843 edge_2_3_0_0 + 0.9605675557163337 edge_2_4_0_0
   + 0.1029812046393167 edge_2_5_0_0 - 0.0277000648351538 edge_2_6_0_0
   + 0.6809769615605568 edge_2_7_0_0 + 0.1868584158278019 edge_2_8_0_0
   + 0.0825399779315551 edge_2_11_0_0 - 0.5327471193399735 edge_2_12_0_0
   + 0.2674409512919088 edge_2_13_0_0 - 0.0177025926148192 edge_2_16_0_0
   - 0.6804973522526907 edge_2_20_0_0 - 1.539754851571841 edge_2_21_0_0
   + 3.387285817615471 edge_2_22_0_0 - 0.3466012458533259 edge_3_1_0_0
   + 0.2330987553964103 edge_3_2_0_0 - 0.3961378934820854 edge_3_5_0_0
   + 1.05420518079096 edge_4_1_0_0 + 1.801719766411931 edge_4_2_0_0
   + 3.529785208085932 edge_4_3_0_0 + 1.155765301494208 edge_4_5_0_0
   + 1.285543441342739 edge_4_6_0_0 + 2.432397166375908 edge_4_7_0_0
   + 1.78457295604161 edge_4_8_0_0 + 0.3890101757851553 edge_4_9_0_0
   - 0.1122691069446771 edge_4_10_0_0 + 0.6901296759887215 edge_4_11_0_0
   + 0.3729335025416575 edge_4_12_0_0 + 2.151219654968191 edge_4_13_0_0
   + 0.1113500002356285 edge_4_16_0_0 - 0.846875319008765 edge_4_17_0_0
   - 0.2373553311402115 edge_4_18_0_0 - 0.0171948992636455 edge_4_20_0_0
   - 0.31698999830861 edge_4_21_0_0 + 5.9456689297794 edge_4_22_0_0
   - 0.2141223376895889 edge_5_1_0_0 - 0.2755702511262184 edge_5_2_0_0
   + 0.4320454919702751 edge_5_3_0_0 + 0.5463637193171237 edge_5_4_0_0
   + 0.4002210683372429 edge_5_6_0_0 + 1.37157915855777 edge_5_7_0_0
   - 0.1929794877481134 edge_5_8_0_0 + 0.4771750432826454 edge_5_9_0_0
   - 0.3095520123539655 edge_5_10_0_0 - 0.1149426946031342 edge_5_11_0_0
   + 0.4788483480496437 edge_5_12_0_0 + 0.4512639784558465 edge_5_13_0_0
   + 0.1491473784463135 edge_5_16_0_0 - 0.9372351157243901 edge_5_18_0_0
   - 0.7831512212266932 edge_5_19_0_0 + 0.3306155279255786 edge_5_20_0_0
   - 1.080924126803123 edge_5_21_0_0 + 0.7305555661353212 edge_5_22_0_0
   - 1.171719884660128 edge_6_1_0_0 - 0.3105577658797217 edge_6_2_0_0
   - 0.6757287579632716 edge_6_4_0_0 + 0.5250363384850277 edge_6_5_0_0
   + 1.0067202274714 edge_6_7_0_0 + 0.6933225583117467 edge_6_8_0_0
   - 0.2667890697082815 edge_6_9_0_0 - 0.3035838592794976 edge_6_10_0_0
   + 0.0042627079230886 edge_6_11_0_0 + 0.648984457934874 edge_6_12_0_0
   - 0.0073299219604757 edge_6_13_0_0 + 0.5777454668020797 edge_6_16_0_0
   - 0.8122337260836334 edge_6_19_0_0 - 0.1948570057179526 edge_6_20_0_0
   + 1.4226955295514 edge_6_22_0_0 + 0.3651078409764218 edge_7_1_0_0
   + 0.388555502969 edge_7_2_0_0 - 0.3255480818671759 edge_7_3_0_0
   + 0.822468559617062 edge_7_4_0_0 + 2.65652952977099 edge_7_5_0_0
   + 2.9380655566912 edge_7_6_0_0 + 0.93653073734628 edge_7_8_0_0
   + 0.00026374 edge_7_9_0_0 + 0.3280820405119126 edge_7_10_0_0
   + 0.4871270501980521 edge_7_11_0_0 + 0.8507882907697225 edge_7_12_0_0
   + 0.9267531194576031 edge_7_13_0_0 + 0.70958133266628 edge_7_16_0_0
   - 1.077522884559 edge_7_17_0_0 - 0.2054443261404 edge_7_18_0_0
   - 0.2316231350496286 edge_7_19_0_0 - 0.4143525731874648 edge_7_20_0_0
   - 0.1718007044052601 edge_7_21_0_0 + 3.63411 edge_7_22_0_0
   - 0.7540927141087768 edge_8_12_0_0 + 0.860672560135489 edge_9_10_0_0
   - 0.5424249496208315 edge_9_13_0_0 + 0.8731885102924436 edge_9_16_0_0
   + 0.4322534974180708 edge_9_17_0_0 - 0.0351433497219588 edge_9_18_0_0
   + 0.0979152285772259 edge_9_19_0_0 - 0.1962573151774454 edge_9_20_0_0
   - 0.6941374261859293 edge_9_21_0_0 - 1.02245920833691 edge_10_4_0_0
   + 0.2910102076948436 edge_10_5_0_0 + 0.1479396618593072 edge_10_6_0_0
   - 0.4813696148843801 edge_10_7_0_0 + 0.5776001878840618 edge_10_8_0_0
   + 2.331159622477397 edge_10_9_0_0 + 0.6476339482544662 edge_10_12_0_0
   + 0.41721855224993 edge_10_13_0_0 + 1.946027731779203 edge_10_16_0_0
   + 0.2632823702463574 edge_10_17_0_0 + 0.8481655376677115 edge_10_18_0_0
   + 1.518900107314831 edge_10_19_0_0 + 0.4066523212739241 edge_10_20_0_0
   + 1.03262252469259 edge_10_21_0_0 + 1.4658891293548 edge_10_22_0_0
   - 0.6254381152854306 edge_11_7_0_0 - 0.3270729678343968 edge_11_12_0_0
   - 0.4627074141564655 edge_12_1_0_0 - 0.7890565233774953 edge_12_2_0_0
   - 0.4583351483271267 edge_12_4_0_0 + 0.0468347461231402 edge_12_5_0_0
   + 0.446482574307688 edge_12_6_0_0 + 3.89152e-05 edge_12_7_0_0
   + 0.6145538563987628 edge_12_8_0_0 - 0.4559255786974133 edge_12_9_0_0
   - 0.1287868889203944 edge_12_10_0_0 + 0.9257880025801751 edge_12_11_0_0
   + 0.6139748992479103 edge_12_13_0_0 + 0.0708357630731191 edge_12_16_0_0
   - 1.427931066195741 edge_12_18_0_0 - 0.8988171111818858 edge_12_19_0_0
   + 0.24849611496502 edge_12_22_0_0 + 0.7221177396605026 edge_13_1_0_0
   + 0.3443965563684493 edge_13_2_0_0 + 0.0930844394528551 edge_13_3_0_0
   + 0.8819151712403966 edge_13_4_0_0 + 2.033713743527224 edge_13_5_0_0
   + 1.910213805126214 edge_13_6_0_0 + 1.725872412788532 edge_13_7_0_0
   + 1.400263946788509 edge_13_8_0_0 + 1.311996523492931 edge_13_9_0_0
   + 2.193785924393448 edge_13_10_0_0 + 2.983223416595752 edge_13_11_0_0
   + 3.371933685221712 edge_13_12_0_0 + 2.021087471522419 edge_13_16_0_0
   + 0.6181171169111916 edge_13_17_0_0 + 1.272268792084774 edge_13_18_0_0
   + 2.212362127151163 edge_13_19_0_0 + 0.2170752050432443 edge_13_20_0_0
   + 1.390418322387929 edge_13_21_0_0 + 3.798214701182 edge_13_22_0_0
   - 0.1478123650787423 edge_16_9_0_0 - 0.0446494701807617 edge_16_10_0_0
   - 0.1418678406919624 edge_16_17_0_0 + 0.2467377734062257 edge_16_18_0_0
   - 0.00241395690888801 edge_16_19_0_0 - 0.9781915606585158 edge_16_20_0_0
   - 0.7136701928064078 edge_16_21_0_0 + 1.337238359651794 edge_17_18_0_0
   + 1.188600234870582 edge_17_19_0_0 + 0.1492117103331236 edge_17_20_0_0
   - 0.0105680006161793 edge_17_21_0_0 + 0.1154768241159545 edge_18_9_0_0
   + 0.2149366914562996 edge_18_10_0_0 + 0.00573594969016171 edge_18_16_0_0
   + 1.642760179322238 edge_18_17_0_0 + 1.528914893407501 edge_18_19_0_0
   + 0.0160267032047211 edge_18_20_0_0 + 0.3148340291297173 edge_18_21_0_0
   + 0.9266869604568 edge_18_22_0_0 - 0.4287834640229222 edge_19_1_0_0
   - 0.9083667701229906 edge_19_2_0_0 - 1.653987931935772 edge_19_3_0_0
   - 1.937883876269263 edge_19_4_0_0 - 0.1933278737944269 edge_19_5_0_0
   - 0.0843597559094906 edge_19_6_0_0 + 0.7454589400353508 edge_19_7_0_0
   - 0.4446682598961028 edge_19_8_0_0 + 0.9279078991196469 edge_19_9_0_0
   + 0.6807388076263091 edge_19_10_0_0 + 0.3147128868280257 edge_19_11_0_0
   + 0.011517053220683 edge_19_12_0_0 + 0.3957074850609189 edge_19_13_0_0
   + 0.812019953239331 edge_19_16_0_0 + 2.354343925076456 edge_19_17_0_0
   + 2.874520816121796 edge_19_18_0_0 + 0.5296824023965316 edge_19_20_0_0
   + 1.669406342681947 edge_19_21_0_0 + 1.593288661636658 edge_19_22_0_0
   - 0.2087689390863998 edge_20_18_0_0 - 0.0277526462572306 edge_20_19_0_0
   + 0.3978421129004815 edge_20_20_0_0 + 0.3831241654810684 edge_20_21_0_0
   - 0.2998473313288637 edge_20_22_0_0 - 0.9943689433164075 edge_21_1_0_0
   - 1.854101931209195 edge_21_2_0_0 - 2.936825063176895 edge_21_3_0_0
   - 2.320921157264506 edge_21_4_0_0 - 1.455301159434206 edge_21_5_0_0
   - 0.7014497985435645 edge_21_6_0_0 - 0.0931944140996262 edge_21_9_0_0
   - 0.4761301941942932 edge_21_10_0_0 - 0.3540710709624288 edge_21_11_0_0
   - 0.4556464444608497 edge_21_12_0_0 + 0.1493686411046487 edge_21_16_0_0
   - 0.01965936691373 edge_21_17_0_0 + 0.4597669746836343 edge_21_18_0_0
   + 0.35431596026998 edge_21_19_0_0 + 1.907820041599834 edge_21_20_0_0
   + 1.08619758054099 edge_21_22_0_0 - 0.74092855555419 edge_22_20_0_0
   - 0.47544558316794 edge_22_21_0_0
Subject To
 one_parent_1: edge_0_1_0_0 + edge_2_1_0_0 + edge_3_1_0_0 + edge_4_1_0_0
   + edge_5_1_0_0 + edge_6_1_0_0 + edge_7_1_0_0 + edge_12_1_0_0
   + edge_13_1_0_0 + edge_19_1_0_0 + edge_21_1_0_0 = 1
 consume_one_flow_unit_1: flow_0_1_0_0 - flow_1_2_0_0 - flow_1_3_0_0
   - flow_1_4_0_0 - flow_1_5_0_0 - flow_1_6_0_0 - flow_1_7_0_0
   - flow_1_8_0_0 - flow_1_12_0_0 - flow_1_13_0_0 + flow_2_1_0_0
   + flow_3_1_0_0 + flow_4_1_0_0 + flow_5_1_0_0 + flow_6_1_0_0
   + flow_7_1_0_0 + flow_12_1_0_0 + flow_13_1_0_0 + flow_19_1_0_0
   + flow_21_1_0_0 = 1
 one_parent_2: edge_0_2_0_0 + edge_1_2_0_0 + edge_3_2_0_0 + edge_4_2_0_0
   + edge_5_2_0_0 + edge_6_2_0_0 + edge_7_2_0_0 + edge_12_2_0_0
   + edge_13_2_0_0 + edge_19_2_0_0 + edge_21_2_0_0 = 1
 consume_one_flow_unit_2: flow_0_2_0_0 + flow_1_2_0_0 - flow_2_1_0_0
   - flow_2_3_0_0 - flow_2_4_0_0 - flow_2_5_0_0 - flow_2_6_0_0
   - flow_2_7_0_0 - flow_2_8_0_0 - flow_2_11_0_0 - flow_2_12_0_0
   - flow_2_13_0_0 - flow_2_16_0_0 - flow_2_20_0_0 - flow_2_21_0_0
   - flow_2_22_0_0 + flow_3_2_0_0 + flow_4_2_0_0 + flow_5_2_0_0
   + flow_6_2_0_0 + flow_7_2_0_0 + flow_12_2_0_0 + flow_13_2_0_0
   + flow_19_2_0_0 + flow_21_2_0_0 = 1
 one_parent_3: edge_0_3_0_0 + edge_1_3_0_0 + edge_2_3_0_0 + edge_4_3_0_0
   + edge_5_3_0_0 + edge_7_3_0_0 + edge_13_3_0_0 + edge_19_3_0_0
   + edge_21_3_0_0 = 1
 consume_one_flow_unit_3: flow_0_3_0_0 + flow_1_3_0_0 + flow_2_3_0_0
   - flow_3_1_0_0 - flow_3_2_0_0 - flow_3_5_0_0 + flow_4_3_0_0
   + flow_5_3_0_0 + flow_7_3_0_0 + flow_13_3_0_0 + flow_19_3_0_0
   + flow_21_3_0_0 = 1
 one_parent_4: edge_0_4_0_0 + edge_1_4_0_0 + edge_2_4_0_0 + edge_5_4_0_0
   + edge_6_4_0_0 + edge_7_4_0_0 + edge_10_4_0_0 + edge_12_4_0_0
   + edge_13_4_0_0 + edge_19_4_0_0 + edge_21_4_0_0 = 1
 consume_one_flow_unit_4: flow_0_4_0_0 + flow_1_4_0_0 + flow_2_4_0_0
   - flow_4_1_0_0 - flow_4_2_0_0 - flow_4_3_0_0 - flow_4_5_0_0
   - flow_4_6_0_0 - flow_4_7_0_0 - flow_4_8_0_0 - flow_4_9_0_0
   - flow_4_10_0_0 - flow_4_11_0_0 - flow_4_12_0_0 - flow_4_13_0_0
   - flow_4_16_0_0 - flow_4_17_0_0 - flow_4_18_0_0 - flow_4_20_0_0
   - flow_4_21_0_0 - flow_4_22_0_0 + flow_5_4_0_0 + flow_6_4_0_0
   + flow_7_4_0_0 + flow_10_4_0_0 + flow_12_4_0_0 + flow_13_4_0_0
   + flow_19_4_0_0 + flow_21_4_0_0 = 1
 one_parent_5: edge_0_5_0_0 + edge_1_5_0_0 + edge_2_5_0_0 + edge_3_5_0_0
   + edge_4_5_0_0 + edge_6_5_0_0 + edge_7_5_0_0 + edge_10_5_0_0
   + edge_12_5_0_0 + edge_13_5_0_0 + edge_19_5_0_0 + edge_21_5_0_0 = 1
 consume_one_flow_unit_5: flow_0_5_0_0 + flow_1_5_0_0 + flow_2_5_0_0
   + flow_3_5_0_0 + flow_4_5_0_0 - flow_5_1_0_0 - flow_5_2_0_0
   - flow_5_3_0_0 - flow_5_4_0_0 - flow_5_6_0_0 - flow_5_7_0_0
   - flow_5_8_0_0 - flow_5_9_0_0 - flow_5_10_0_0 - flow_5_11_0_0
   - flow_5_12_0_0 - flow_5_13_0_0 - flow_5_16_0_0 - flow_5_18_0_0
   - flow_5_19_0_0 - flow_5_20_0_0 - flow_5_21_0_0 - flow_5_22_0_0
   + flow_6_5_0_0 + flow_7_5_0_0 + flow_10_5_0_0 + flow_12_5_0_0
   + flow_13_5_0_0 + flow_19_5_0_0 + flow_21_5_0_0 = 1
 one_parent_6: edge_0_6_0_0 + edge_1_6_0_0 + edge_2_6_0_0 + edge_4_6_0_0
   + edge_5_6_0_0 + edge_7_6_0_0 + edge_10_6_0_0 + edge_12_6_0_0
   + edge_13_6_0_0 + edge_19_6_0_0 + edge_21_6_0_0 = 1
 consume_one_flow_unit_6: flow_0_6_0_0 + flow_1_6_0_0 + flow_2_6_0_0
   + flow_4_6_0_0 + flow_5_6_0_0 - flow_6_1_0_0 - flow_6_2_0_0
   - flow_6_4_0_0 - flow_6_5_0_0 - flow_6_7_0_0 - flow_6_8_0_0
   - flow_6_9_0_0 - flow_6_10_0_0 - flow_6_11_0_0 - flow_6_12_0_0
   - flow_6_13_0_0 - flow_6_16_0_0 - flow_6_19_0_0 - flow_6_20_0_0
   - flow_6_22_0_0 + flow_7_6_0_0 + flow_10_6_0_0 + flow_12_6_0_0
   + flow_13_6_0_0 + flow_19_6_0_0 + flow_21_6_0_0 = 1
 one_parent_7: edge_0_7_0_0 + edge_1_7_0_0 + edge_2_7_0_0 + edge_4_7_0_0
   + edge_5_7_0_0 + edge_6_7_0_0 + edge_10_7_0_0 + edge_11_7_0_0
   + edge_12_7_0_0 + edge_13_7_0_0 + edge_19_7_0_0 = 1
 consume_one_flow_unit_7: flow_0_7_0_0 + flow_1_7_0_0 + flow_2_7_0_0
   + flow_4_7_0_0 + flow_5_7_0_0 + flow_6_7_0_0 - flow_7_1_0_0
   - flow_7_2_0_0 - flow_7_3_0_0 - flow_7_4_0_0 - flow_7_5_0_0
   - flow_7_6_0_0 - flow_7_8_0_0 - flow_7_9_0_0 - flow_7_10_0_0
   - flow_7_11_0_0 - flow_7_12_0_0 - flow_7_13_0_0 - flow_7_16_0_0
   - flow_7_17_0_0 - flow_7_18_0_0 - flow_7_19_0_0 - flow_7_20_0_0
   - flow_7_21_0_0 - flow_7_22_0_0 + flow_10_7_0_0 + flow_11_7_0_0
   + flow_12_7_0_0 + flow_13_7_0_0 + flow_19_7_0_0 = 1
 one_parent_8: edge_1_8_0_0 + edge_2_8_0_0 + edge_4_8_0_0 + edge_5_8_0_0
   + edge_6_8_0_0 + edge_7_8_0_0 + edge_10_8_0_0 + edge_12_8_0_0
   + edge_13_8_0_0 + edge_19_8_0_0 = 1
 consume_one_flow_unit_8: flow_1_8_0_0 + flow_2_8_0_0 + flow_4_8_0_0
   + flow_5_8_0_0 + flow_6_8_0_0 + flow_7_8_0_0 - flow_8_12_0_0
   + flow_10_8_0_0 + flow_12_8_0_0 + flow_13_8_0_0 + flow_19_8_0_0 = 1
 one_parent_9: edge_4_9_0_0 + edge_5_9_0_0 + edge_6_9_0_0 + edge_7_9_0_0
   + edge_10_9_0_0 + edge_12_9_0_0 + edge_13_9_0_0 + edge_16_9_0_0
   + edge_18_9_0_0 + edge_19_9_0_0 + edge_21_9_0_0 = 1
 consume_one_flow_unit_9: flow_4_9_0_0 + flow_5_9_0_0 + flow_6_9_0_0
   + flow_7_9_0_0 - flow_9_10_0_0 - flow_9_13_0_0 - flow_9_16_0_0
   - flow_9_17_0_0 - flow_9_18_0_0 - flow_9_19_0_0 - flow_9_20_0_0
   - flow_9_21_0_0 + flow_10_9_0_0 + flow_12_9_0_0 + flow_13_9_0_0
   + flow_16_9_0_0 + flow_18_9_0_0 + flow_19_9_0_0 + flow_21_9_0_0 = 1
 one_parent_10: edge_0_10_0_0 + edge_4_10_0_0 + edge_5_10_0_0
   + edge_6_10_0_0 + edge_7_10_0_0 + edge_9_10_0_0 + edge_12_10_0_0
   + edge_13_10_0_0 + edge_16_10_0_0 + edge_18_10_0_0 + edge_19_10_0_0
   + edge_21_10_0_0 = 1
 consume_one_flow_unit_10: flow_0_10_0_0 + flow_4_10_0_0 + flow_5_10_0_0
   + flow_6_10_0_0 + flow_7_10_0_0 + flow_9_10_0_0 - flow_10_4_0_0
   - flow_10_5_0_0 - flow_10_6_0_0 - flow_10_7_0_0 - flow_10_8_0_0
   - flow_10_9_0_0 - flow_10_12_0_0 - flow_10_13_0_0 - flow_10_16_0_0
   - flow_10_17_0_0 - flow_10_18_0_0 - flow_10_19_0_0 - flow_10_20_0_0
   - flow_10_21_0_0 - flow_10_22_0_0 + flow_12_10_0_0 + flow_13_10_0_0
   + flow_16_10_0_0 + flow_18_10_0_0 + flow_19_10_0_0 + flow_21_10_0_0 = 1
 one_parent_11: edge_2_11_0_0 + edge_4_11_0_0 + edge_5_11_0_0
   + edge_6_11_0_0 + edge_7_11_0_0 + edge_12_11_0_0 + edge_13_11_0_0
   + edge_19_11_0_0 + edge_21_11_0_0 = 1
 consume_one_flow_unit_11: flow_2_11_0_0 + flow_4_11_0_0 + flow_5_11_0_0
   + flow_6_11_0_0 + flow_7_11_0_0 - flow_11_7_0_0 - flow_11_12_0_0
   + flow_12_11_0_0 + flow_13_11_0_0 + flow_19_11_0_0 + flow_21_11_0_0 = 1
 one_parent_12: edge_0_12_0_0 + edge_1_12_0_0 + edge_2_12_0_0
   + edge_4_12_0_0 + edge_5_12_0_0 + edge_6_12_0_0 + edge_7_12_0_0
   + edge_8_12_0_0 + edge_10_12_0_0 + edge_11_12_0_0 + edge_13_12_0_0
   + edge_19_12_0_0 + edge_21_12_0_0 = 1
 consume_one_flow_unit_12: flow_0_12_0_0 + flow_1_12_0_0 + flow_2_12_0_0
   + flow_4_12_0_0 + flow_5_12_0_0 + flow_6_12_0_0 + flow_7_12_0_0
   + flow_8_12_0_0 + flow_10_12_0_0 + flow_11_12_0_0 - flow_12_1_0_0
   - flow_12_2_0_0 - flow_12_4_0_0 - flow_12_5_0_0 - flow_12_6_0_0
   - flow_12_7_0_0 - flow_12_8_0_0 - flow_12_9_0_0 - flow_12_10_0_0
   - flow_12_11_0_0 - flow_12_13_0_0 - flow_12_16_0_0 - flow_12_18_0_0
   - flow_12_19_0_0 - flow_12_22_0_0 + flow_13_12_0_0 + flow_19_12_0_0
   + flow_21_12_0_0 = 1
 one_parent_13: edge_0_13_0_0 + edge_1_13_0_0 + edge_2_13_0_0
   + edge_4_13_0_0 + edge_5_13_0_0 + edge_6_13_0_0 + edge_7_13_0_0
   + edge_9_13_0_0 + edge_10_13_0_0 + edge_12_13_0_0 + edge_19_13_0_0 = 1
 consume_one_flow_unit_13: flow_0_13_0_0 + flow_1_13_0_0 + flow_2_13_0_0
   + flow_4_13_0_0 + flow_5_13_0_0 + flow_6_13_0_0 + flow_7_13_0_0
   + flow_9_13_0_0 + flow_10_13_0_0 + flow_12_13_0_0 - flow_13_1_0_0
   - flow_13_2_0_0 - flow_13_3_0_0 - flow_13_4_0_0 - flow_13_5_0_0
   - flow_13_6_0_0 - flow_13_7_0_0 - flow_13_8_0_0 - flow_13_9_0_0
   - flow_13_10_0_0 - flow_13_11_0_0 - flow_13_12_0_0 - flow_13_16_0_0
   - flow_13_17_0_0 - flow_13_18_0_0 - flow_13_19_0_0 - flow_13_20_0_0
   - flow_13_21_0_0 - flow_13_22_0_0 + flow_19_13_0_0 = 1
 one_parent_14: = 1
 consume_one_flow_unit_14: = 1
 one_parent_15: = 1
 consume_one_flow_unit_15: = 1
 one_parent_16: edge_2_16_0_0 + edge_4_16_0_0 + edge_5_16_0_0
   + edge_6_16_0_0 + edge_7_16_0_0 + edge_9_16_0_0 + edge_10_16_0_0
   + edge_12_16_0_0 + edge_13_16_0_0 + edge_18_16_0_0 + edge_19_16_0_0
   + edge_21_16_0_0 = 1
 consume_one_flow_unit_16: flow_2_16_0_0 + flow_4_16_0_0 + flow_5_16_0_0
   + flow_6_16_0_0 + flow_7_16_0_0 + flow_9_16_0_0 + flow_10_16_0_0
   + flow_12_16_0_0 + flow_13_16_0_0 - flow_16_9_0_0 - flow_16_10_0_0
   - flow_16_17_0_0 - flow_16_18_0_0 - flow_16_19_0_0 - flow_16_20_0_0
   - flow_16_21_0_0 + flow_18_16_0_0 + flow_19_16_0_0 + flow_21_16_0_0 = 1
 one_parent_17: edge_4_17_0_0 + edge_7_17_0_0 + edge_9_17_0_0
   + edge_10_17_0_0 + edge_13_17_0_0 + edge_16_17_0_0 + edge_18_17_0_0
   + edge_19_17_0_0 + edge_21_17_0_0 = 1
 consume_one_flow_unit_17: flow_4_17_0_0 + flow_7_17_0_0 + flow_9_17_0_0
   + flow_10_17_0_0 + flow_13_17_0_0 + flow_16_17_0_0 - flow_17_18_0_0
   - flow_17_19_0_0 - flow_17_20_0_0 - flow_17_21_0_0 + flow_18_17_0_0
   + flow_19_17_0_0 + flow_21_17_0_0 = 1
 one_parent_18: edge_4_18_0_0 + edge_5_18_0_0 + edge_7_18_0_0
   + edge_9_18_0_0 + edge_10_18_0_0 + edge_12_18_0_0 + edge_13_18_0_0
   + edge_16_18_0_0 + edge_17_18_0_0 + edge_19_18_0_0 + edge_20_18_0_0
   + edge_21_18_0_0 = 1
 consume_one_flow_unit_18: flow_4_18_0_0 + flow_5_18_0_0 + flow_7_18_0_0
   + flow_9_18_0_0 + flow_10_18_0_0 + flow_12_18_0_0 + flow_13_18_0_0
   + flow_16_18_0_0 + flow_17_18_0_0 - flow_18_9_0_0 - flow_18_10_0_0
   - flow_18_16_0_0 - flow_18_17_0_0 - flow_18_19_0_0 - flow_18_20_0_0
   - flow_18_21_0_0 - flow_18_22_0_0 + flow_19_18_0_0 + flow_20_18_0_0
   + flow_21_18_0_0 = 1
 one_parent_19: edge_5_19_0_0 + edge_6_19_0_0 + edge_7_19_0_0
   + edge_9_19_0_0 + edge_10_19_0_0 + edge_12_19_0_0 + edge_13_19_0_0
   + edge_16_19_0_0 + edge_17_19_0_0 + edge_18_19_0_0 + edge_20_19_0_0
   + edge_21_19_0_0 = 1
 consume_one_flow_unit_19: flow_5_19_0_0 + flow_6_19_0_0 + flow_7_19_0_0
   + flow_9_19_0_0 + flow_10_19_0_0 + flow_12_19_0_0 + flow_13_19_0_0
   + flow_16_19_0_0 + flow_17_19_0_0 + flow_18_19_0_0 - flow_19_1_0_0
   - flow_19_2_0_0 - flow_19_3_0_0 - flow_19_4_0_0 - flow_19_5_0_0
   - flow_19_6_0_0 - flow_19_7_0_0 - flow_19_8_0_0 - flow_19_9_0_0
   - flow_19_10_0_0 - flow_19_11_0_0 - flow_19_12_0_0 - flow_19_13_0_0
   - flow_19_16_0_0 - flow_19_17_0_0 - flow_19_18_0_0 - flow_19_20_0_0
   - flow_19_21_0_0 - flow_19_22_0_0 + flow_20_19_0_0 + flow_21_19_0_0 = 1
 one_parent_20: edge_2_20_0_0 + edge_4_20_0_0 + edge_5_20_0_0
   + edge_6_20_0_0 + edge_7_20_0_0 + edge_9_20_0_0 + edge_10_20_0_0
   + edge_13_20_0_0 + edge_16_20_0_0 + edge_17_20_0_0 + edge_18_20_0_0
   + edge_19_20_0_0 + edge_20_20_0_0 + edge_21_20_0_0 + edge_22_20_0_0 = 1
 consume_one_flow_unit_20: flow_2_20_0_0 + flow_4_20_0_0 + flow_5_20_0_0
   + flow_6_20_0_0 + flow_7_20_0_0 + flow_9_20_0_0 + flow_10_20_0_0
   + flow_13_20_0_0 + flow_16_20_0_0 + flow_17_20_0_0 + flow_18_20_0_0
   + flow_19_20_0_0 - flow_20_18_0_0 - flow_20_19_0_0 - flow_20_21_0_0
   - flow_20_22_0_0 + flow_21_20_0_0 + flow_22_20_0_0 = 1
 one_parent_21: edge_2_21_0_0 + edge_4_21_0_0 + edge_5_21_0_0
   + edge_7_21_0_0 + edge_9_21_0_0 + edge_10_21_0_0 + edge_13_21_0_0
   + edge_16_21_0_0 + edge_17_21_0_0 + edge_18_21_0_0 + edge_19_21_0_0
   + edge_20_21_0_0 + edge_22_21_0_0 = 1
 consume_one_flow_unit_21: flow_2_21_0_0 + flow_4_21_0_0 + flow_5_21_0_0
   + flow_7_21_0_0 + flow_9_21_0_0 + flow_10_21_0_0 + flow_13_21_0_0
   + flow_16_21_0_0 + flow_17_21_0_0 + flow_18_21_0_0 + flow_19_21_0_0
   + flow_20_21_0_0 - flow_21_1_0_0 - flow_21_2_0_0 - flow_21_3_0_0
   - flow_21_4_0_0 - flow_21_5_0_0 - flow_21_6_0_0 - flow_21_9_0_0
   - flow_21_10_0_0 - flow_21_11_0_0 - flow_21_12_0_0 - flow_21_16_0_0
   - flow_21_17_0_0 - flow_21_18_0_0 - flow_21_19_0_0 - flow_21_20_0_0
   - flow_21_22_0_0 + flow_22_21_0_0 = 1
 one_parent_22: edge_2_22_0_0 + edge_4_22_0_0 + edge_5_22_0_0
   + edge_6_22_0_0 + edge_7_22_0_0 + edge_10_22_0_0 + edge_12_22_0_0
   + edge_13_22_0_0 + edge_18_22_0_0 + edge_19_22_0_0 + edge_20_22_0_0
   + edge_21_22_0_0 = 1
 consume_one_flow_unit_22: flow_2_22_0_0 + flow_4_22_0_0 + flow_5_22_0_0
   + flow_6_22_0_0 + flow_7_22_0_0 + flow_10_22_0_0 + flow_12_22_0_0
   + flow_13_22_0_0 + flow_18_22_0_0 + flow_19_22_0_0 + flow_20_22_0_0
   + flow_21_22_0_0 - flow_22_20_0_0 - flow_22_21_0_0 = 1
 root_flow: flow_0_1_0_0 + flow_0_2_0_0 + flow_0_3_0_0 + flow_0_4_0_0
   + flow_0_5_0_0 + flow_0_6_0_0 + flow_0_7_0_0 + flow_0_10_0_0
   + flow_0_12_0_0 + flow_0_13_0_0 = 22
 inactive_no_flow_0_1_0_0: flow_0_1_0_0 - 1000 edge_0_1_0_0 <= 0
 inactive_no_flow_0_2_0_0: flow_0_2_0_0 - 1000 edge_0_2_0_0 <= 0
 inactive_no_flow_0_3_0_0: flow_0_3_0_0 - 1000 edge_0_3_0_0 <= 0
 inactive_no_flow_0_4_0_0: flow_0_4_0_0 - 1000 edge_0_4_0_0 <= 0
 inactive_no_flow_0_5_0_0: flow_0_5_0_0 - 1000 edge_0_5_0_0 <= 0
 inactive_no_flow_0_6_0_0: flow_0_6_0_0 - 1000 edge_0_6_0_0 <= 0
 inactive_no_flow_0_7_0_0: flow_0_7_0_0 - 1000 edge_0_7_0_0 <= 0
 inactive_no_flow_0_10_0_0: flow_0_10_0_0 - 1000 edge_0_10_0_0 <= 0
 inactive_no_flow_0_12_0_0: flow_0_12_0_0 - 1000 edge_0_12_0_0 <= 0
 inactive_no_flow_0_13_0_0: flow_0_13_0_0 - 1000 edge_0_13_0_0 <= 0
 inactive_no_flow_1_2_0_0: flow_1_2_0_0 - 1000 edge_1_2_0_0 <= 0
 inactive_no_flow_1_3_0_0: flow_1_3_0_0 - 1000 edge_1_3_0_0 <= 0
 inactive_no_flow_1_4_0_0: flow_1_4_0_0 - 1000 edge_1_4_0_0 <= 0
 inactive_no_flow_1_5_0_0: flow_1_5_0_0 - 1000 edge_1_5_0_0 <= 0
 inactive_no_flow_1_6_0_0: flow_1_6_0_0 - 1000 edge_1_6_0_0 <= 0
 inactive_no_flow_1_7_0_0: flow_1_7_0_0 - 1000 edge_1_7_0_0 <= 0
 inactive_no_flow_1_8_0_0: flow_1_8_0_0 - 1000 edge_1_8_0_0 <= 0
 inactive_no_flow_1_12_0_0: flow_1_12_0_0 - 1000 edge_1_12_0_0 <= 0
 inactive_no_flow_1_13_0_0: flow_1_13_0_0 - 1000 edge_1_13_0_0 <= 0
 inactive_no_flow_2_1_0_0: flow_2_1_0_0 - 1000 edge_2_1_0_0 <= 0
 inactive_no_flow_2_3_0_0: flow_2_3_0_0 - 1000 edge_2_3_0_0 <= 0
 inactive_no_flow_2_4_0_0: flow_2_4_0_0 - 1000 edge_2_4_0_0 <= 0
 inactive_no_flow_2_5_0_0: flow_2_5_0_0 - 1000 edge_2_5_0_0 <= 0
 inactive_no_flow_2_6_0_0: flow_2_6_0_0 - 1000 edge_2_6_0_0 <= 0
 inactive_no_flow_2_7_0_0: flow_2_7_0_0 - 1000 edge_2_7_0_0 <= 0
 inactive_no_flow_2_8_0_0: flow_2_8_0_0 - 1000 edge_2_8_0_0 <= 0
 inactive_no_flow_2_11_0_0: flow_2_11_0_0 - 1000 edge_2_11_0_0 <= 0
 inactive_no_flow_2_12_0_0: flow_2_12_0_0 - 1000 edge_2_12_0_0 <= 0
 inactive_no_flow_2_13_0_0: flow_2_13_0_0 - 1000 edge_2_13_0_0 <= 0
 inactive_no_flow_2_16_0_0: flow_2_16_0_0 - 1000 edge_2_16_0_0 <= 0
 inactive_no_flow_2_20_0_0: flow_2_20_0_0 - 1000 edge_2_20_0_0 <= 0
 inactive_no_flow_2_21_0_0: flow_2_21_0_0 - 1000 edge_2_21_0_0 <= 0
 inactive_no_flow_2_22_0_0: flow_2_22_0_0 - 1000 edge_2_22_0_0 <= 0
 inactive_no_flow_3_1_0_0: flow_3_1_0_0 - 1000 edge_3_1_0_0 <= 0
 inactive_no_flow_3_2_0_0: flow_3_2_0_0 - 1000 edge_3_2_0_0 <= 0
 inactive_no_flow_3_5_0_0: flow_3_5_0_0 - 1000 edge_3_5_0_0 <= 0
 inactive_no_flow_4_1_0_0: flow_4_1_0_0 - 1000 edge_4_1_0_0 <= 0
 inactive_no_flow_4_2_0_0: flow_4_2_0_0 - 1000 edge_4_2_0_0 <= 0
 inactive_no_flow_4_3_0_0: flow_4_3_0_0 - 1000 edge_4_3_0_0 <= 0
 inactive_no_flow_4_5_0_0: flow_4_5_0_0 - 1000 edge_4_5_0_0 <= 0
 inactive_no_flow_4_6_0_0: flow_4_6_0_0 - 1000 edge_4_6_0_0 <= 0
 inactive_no_flow_4_7_0_0: flow_4_7_0_0 - 1000 edge_4_7_0_0 <= 0
 inactive_no_flow_4_8_0_0: flow_4_8_0_0 - 1000 edge_4_8_0_0 <= 0
 inactive_no_flow_4_9_0_0: flow_4_9_0_0 - 1000 edge_4_9_0_0 <= 0
 inactive_no_flow_4_10_0_0: flow_4_10_0_0 - 1000 edge_4_10_0_0 <= 0
 inactive_no_flow_4_11_0_0: flow_4_11_0_0 - 1000 edge_4_11_0_0 <= 0
 inactive_no_flow_4_12_0_0: flow_4_12_0_0 - 1000 edge_4_12_0_0 <= 0
 inactive_no_flow_4_13_0_0: flow_4_13_0_0 - 1000 edge_4_13_0_0 <= 0
 inactive_no_flow_4_16_0_0: flow_4_16_0_0 - 1000 edge_4_16_0_0 <= 0
 inactive_no_flow_4_17_0_0: flow_4_17_0_0 - 1000 edge_4_17_0_0 <= 0
 inactive_no_flow_4_18_0_0: flow_4_18_0_0 - 1000 edge_4_18_0_0 <= 0
 inactive_no_flow_4_20_0_0: flow_4_20_0_0 - 1000 edge_4_20_0_0 <= 0
 inactive_no_flow_4_21_0_0: flow_4_21_0_0 - 1000 edge_4_21_0_0 <= 0
 inactive_no_flow_4_22_0_0: flow_4_22_0_0 - 1000 edge_4_22_0_0 <= 0
 inactive_no_flow_5_1_0_0: flow_5_1_0_0 - 1000 edge_5_1_0_0 <= 0
 inactive_no_flow_5_2_0_0: flow_5_2_0_0 - 1000 edge_5_2_0_0 <= 0
 inactive_no_flow_5_3_0_0: flow_5_3_0_0 - 1000 edge_5_3_0_0 <= 0
 inactive_no_flow_5_4_0_0: flow_5_4_0_0 - 1000 edge_5_4_0_0 <= 0
 inactive_no_flow_5_6_0_0: flow_5_6_0_0 - 1000 edge_5_6_0_0 <= 0
 inactive_no_flow_5_7_0_0: flow_5_7_0_0 - 1000 edge_5_7_0_0 <= 0
 inactive_no_flow_5_8_0_0: flow_5_8_0_0 - 1000 edge_5_8_0_0 <= 0
 inactive_no_flow_5_9_0_0: flow_5_9_0_0 - 1000 edge_5_9_0_0 <= 0
 inactive_no_flow_5_10_0_0: flow_5_10_0_0 - 1000 edge_5_10_0_0 <= 0
 inactive_no_flow_5_11_0_0: flow_5_11_0_0 - 1000 edge_5_11_0_0 <= 0
 inactive_no_flow_5_12_0_0: flow_5_12_0_0 - 1000 edge_5_12_0_0 <= 0
 inactive_no_flow_5_13_0_0: flow_5_13_0_0 - 1000 edge_5_13_0_0 <= 0
 inactive_no_flow_5_16_0_0: flow_5_16_0_0 - 1000 edge_5_16_0_0 <= 0
 inactive_no_flow_5_18_0_0: flow_5_18_0_0 - 1000 edge_5_18_0_0 <= 0
 inactive_no_flow_5_19_0_0: flow_5_19_0_0 - 1000 edge_5_19_0_0 <= 0
 inactive_no_flow_5_20_0_0: flow_5_20_0_0 - 1000 edge_5_20_0_0 <= 0
 inactive_no_flow_5_21_0_0: flow_5_21_0_0 - 1000 edge_5_21_0_0 <= 0
 inactive_no_flow_5_22_0_0: flow_5_22_0_0 - 1000 edge_5_22_0_0 <= 0
 inactive_no_flow_6_1_0_0: flow_6_1_0_0 - 1000 edge_6_1_0_0 <= 0
 inactive_no_flow_6_2_0_0: flow_6_2_0_0 - 1000 edge_6_2_0_0 <= 0
 inactive_no_flow_6_4_0_0: flow_6_4_0_0 - 1000 edge_6_4_0_0 <= 0
 inactive_no_flow_6_5_0_0: flow_6_5_0_0 - 1000 edge_6_5_0_0 <= 0
 inactive_no_flow_6_7_0_0: flow_6_7_0_0 - 1000 edge_6_7_0_0 <= 0
 inactive_no_flow_6_8_0_0: flow_6_8_0_0 - 1000 edge_6_8_0_0 <= 0
 inactive_no_flow_6_9_0_0: flow_6_9_0_0 - 1000 edge_6_9_0_0 <= 0
 inactive_no_flow_6_10_0_0: flow_6_10_0_0 - 1000 edge_6_10_0_0 <= 0
 inactive_no_flow_6_11_0_0: flow_6_11_0_0 - 1000 edge_6_11_0_0 <= 0
 inactive_no_flow_6_12_0_0: flow_6_12_0_0 - 1000 edge_6_12_0_0 <= 0
 inactive_no_flow_6_13_0_0: flow_6_13_0_0 - 1000 edge_6_13_0_0 <= 0
 inactive_no_flow_6_16_0_0: flow_6_16_0_0 - 1000 edge_6_16_0_0 <= 0
 inactive_no_flow_6_19_0_0: flow_6_19_0_0 - 1000 edge_6_19_0_0 <= 0
 inactive_no_flow_6_20_0_0: flow_6_20_0_0 - 1000 edge_6_20_0_0 <= 0
 inactive_no_flow_6_22_0_0: flow_6_22_0_0 - 1000 edge_6_22_0_0 <= 0
 inactive_no_flow_7_1_0_0: flow_7_1_0_0 - 1000 edge_7_1_0_0 <= 0
 inactive_no_flow_7_2_0_0: flow_7_2_0_0 - 1000 edge_7_2_0_0 <= 0
 inactive_no_flow_7_3_0_0: flow_7_3_0_0 - 1000 edge_7_3_0_0 <= 0
 inactive_no_flow_7_4_0_0: flow_7_4_0_0 - 1000 edge_7_4_0_0 <= 0
 inactive_no_flow_7_5_0_0: flow_7_5_0_0 - 1000 edge_7_5_0_0 <= 0
 inactive_no_flow_7_6_0_0: flow_7_6_0_0 - 1000 edge_7_6_0_0 <= 0
 inactive_no_flow_7_8_0_0: flow_7_8_0_0 - 1000 edge_7_8_0_0 <= 0
 inactive_no_flow_7_9_0_0: flow_7_9_0_0 - 1000 edge_7_9_0_0 <= 0
 inactive_no_flow_7_10_0_0: flow_7_10_0_0 - 1000 edge_7_10_0_0 <= 0
 inactive_no_flow_7_11_0_0: flow_7_11_0_0 - 1000 edge_7_11_0_0 <= 0
 inactive_no_flow_7_12_0_0: flow_7_12_0_0 - 1000 edge_7_12_0_0 <= 0
 inactive_no_flow_7_13_0_0: flow_7_13_0_0 - 1000 edge_7_13_0_0 <= 0
 inactive_no_flow_7_16_0_0: flow_7_16_0_0 - 1000 edge_7_16_0_0 <= 0
 inactive_no_flow_7_17_0_0: flow_7_17_0_0 - 1000 edge_7_17_0_0 <= 0
 inactive_no_flow_7_18_0_0: flow_7_18_0_0 - 1000 edge_7_18_0_0 <= 0
 inactive_no_flow_7_19_0_0: flow_7_19_0_0 - 1000 edge_7_19_0_0 <= 0
 inactive_no_flow_7_20_0_0: flow_7_20_0_0 - 1000 edge_7_20_0_0 <= 0
 inactive_no_flow_7_21_0_0: flow_7_21_0_0 - 1000 edge_7_21_0_0 <= 0
 inactive_no_flow_7_22_0_0: flow_7_22_0_0 - 1000 edge_7_22_0_0 <= 0
 inactive_no_flow_8_12_0_0: flow_8_12_0_0 - 1000 edge_8_12_0_0 <= 0
 inactive_no_flow_9_10_0_0: flow_9_10_0_0 - 1000 edge_9_10_0_0 <= 0
 inactive_no_flow_9_13_0_0: flow_9_13_0_0 - 1000 edge_9_13_0_0 <= 0
 inactive_no_flow_9_16_0_0: flow_9_16_0_0 - 1000 edge_9_16_0_0 <= 0
 inactive_no_flow_9_17_0_0: flow_9_17_0_0 - 1000 edge_9_17_0_0 <= 0
 inactive_no_flow_9_18_0_0: flow_9_18_0_0 - 1000 edge_9_18_0_0 <= 0
 inactive_no_flow_9_19_0_0: flow_9_19_0_0 - 1000 edge_9_19_0_0 <= 0
 inactive_no_flow_9_20_0_0: flow_9_20_0_0 - 1000 edge_9_20_0_0 <= 0
 inactive_no_flow_9_21_0_0: flow_9_21_0_0 - 1000 edge_9_21_0_0 <= 0
 inactive_no_flow_10_4_0_0: flow_10_4_0_0 - 1000 edge_10_4_0_0 <= 0
 inactive_no_flow_10_5_0_0: flow_10_5_0_0 - 1000 edge_10_5_0_0 <= 0
 inactive_no_flow_10_6_0_0: flow_10_6_0_0 - 1000 edge_10_6_0_0 <= 0
 inactive_no_flow_10_7_0_0: flow_10_7_0_0 - 1000 edge_10_7_0_0 <= 0
 inactive_no_flow_10_8_0_0: flow_10_8_0_0 - 1000 edge_10_8_0_0 <= 0
 inactive_no_flow_10_9_0_0: flow_10_9_0_0 - 1000 edge_10_9_0_0 <= 0
 inactive_no_flow_10_12_0_0: flow_10_12_0_0 - 1000 edge_10_12_0_0 <= 0
 inactive_no_flow_10_13_0_0: flow_10_13_0_0 - 1000 edge_10_13_0_0 <= 0
 inactive_no_flow_10_16_0_0: flow_10_16_0_0 - 1000 edge_10_16_0_0 <= 0
 inactive_no_flow_10_17_0_0: flow_10_17_0_0 - 1000 edge_10_17_0_0 <= 0
 inactive_no_flow_10_18_0_0: flow_10_18_0_0 - 1000 edge_10_18_0_0 <= 0
 inactive_no_flow_10_19_0_0: flow_10_19_0_0 - 1000 edge_10_19_0_0 <= 0
 inactive_no_flow_10_20_0_0: flow_10_20_0_0 - 1000 edge_10_20_0_0 <= 0
 inactive_no_flow_10_21_0_0: flow_10_21_0_0 - 1000 edge_10_21_0_0 <= 0
 inactive_no_flow_10_22_0_0: flow_10_22_0_0 - 1000 edge_10_22_0_0 <= 0
 inactive_no_flow_11_7_0_0: flow_11_7_0_0 - 1000 edge_11_7_0_0 <= 0
 inactive_no_flow_11_12_0_0: flow_11_12_0_0 - 1000 edge_11_12_0_0 <= 0
 inactive_no_flow_12_1_0_0: flow_12_1_0_0 - 1000 edge_12_1_0_0 <= 0
 inactive_no_flow_12_2_0_0: flow_12_2_0_0 - 1000 edge_12_2_0_0 <= 0
 inactive_no_flow_12_4_0_0: flow_12_4_0_0 - 1000 edge_12_4_0_0 <= 0
 inactive_no_flow_12_5_0_0: flow_12_5_0_0 - 1000 edge_12_5_0_0 <= 0
 inactive_no_flow_12_6_0_0: flow_12_6_0_0 - 1000 edge_12_6_0_0 <= 0
 inactive_no_flow_12_7_0_0: flow_12_7_0_0 - 1000 edge_12_7_0_0 <= 0
 inactive_no_flow_12_8_0_0: flow_12_8_0_0 - 1000 edge_12_8_0_0 <= 0
 inactive_no_flow_12_9_0_0: flow_12_9_0_0 - 1000 edge_12_9_0_0 <= 0
 inactive_no_flow_12_10_0_0: flow_12_10_0_0 - 1000 edge_12_10_0_0 <= 0
 inactive_no_flow_12_11_0_0: flow_12_11_0_0 - 1000 edge_12_11_0_0 <= 0
 inactive_no_flow_12_13_0_0: flow_12_13_0_0 - 1000 edge_12_13_0_0 <= 0
 inactive_no_flow_12_16_0_0: flow_12_16_0_0 - 1000 edge_12_16_0_0 <= 0
 inactive_no_flow_12_18_0_0: flow_12_18_0_0 - 1000 edge_12_18_0_0 <= 0
 inactive_no_flow_12_19_0_0: flow_12_19_0_0 - 1000 edge_12_19_0_0 <= 0
 inactive_no_flow_12_22_0_0: flow_12_22_0_0 - 1000 edge_12_22_0_0 <= 0
 inactive_no_flow_13_1_0_0: flow_13_1_0_0 - 1000 edge_13_1_0_0 <= 0
 inactive_no_flow_13_2_0_0: flow_13_2_0_0 - 1000 edge_13_2_0_0 <= 0
 inactive_no_flow_13_3_0_0: flow_13_3_0_0 - 1000 edge_13_3_0_0 <= 0
 inactive_no_flow_13_4_0_0: flow_13_4_0_0 - 1000 edge_13_4_0_0 <= 0
 inactive_no_flow_13_5_0_0: flow_13_5_0_0 - 1000 edge_13_5_0_0 <= 0
 inactive_no_flow_13_6_0_0: flow_13_6_0_0 - 1000 edge_13_6_0_0 <= 0
 inactive_no_flow_13_7_0_0: flow_13_7_0_0 - 1000 edge_13_7_0_0 <= 0
 inactive_no_flow_13_8_0_0: flow_13_8_0_0 - 1000 edge_13_8_0_0 <= 0
 inactive_no_flow_13_9_0_0: flow_13_9_0_0 - 1000 edge_13_9_0_0 <= 0
 inactive_no_flow_13_10_0_0: flow_13_10_0_0 - 1000 edge_13_10_0_0 <= 0
 inactive_no_flow_13_11_0_0: flow_13_11_0_0 - 1000 edge_13_11_0_0 <= 0
 inactive_no_flow_13_12_0_0: flow_13_12_0_0 - 1000 edge_13_12_0_0 <= 0
 inactive_no_flow_13_16_0_0: flow_13_16_0_0 - 1000 edge_13_16_0_0 <= 0
 inactive_no_flow_13_17_0_0: flow_13_17_0_0 - 1000 edge_13_17_0_0 <= 0
 inactive_no_flow_13_18_0_0: flow_13_18_0_0 - 1000 edge_13_18_0_0 <= 0
 inactive_no_flow_13_19_0_0: flow_13_19_0_0 - 1000 edge_13_19_0_0 <= 0
 inactive_no_flow_13_20_0_0: flow_13_20_0_0 - 1000 edge_13_20_0_0 <= 0
 inactive_no_flow_13_21_0_0: flow_13_21_0_0 - 1000 edge_13_21_0_0 <= 0
 inactive_no_flow_13_22_0_0: flow_13_22_0_0 - 1000 edge_13_22_0_0 <= 0
 inactive_no_flow_16_9_0_0: flow_16_9_0_0 - 1000 edge_16_9_0_0 <= 0
 inactive_no_flow_16_10_0_0: flow_16_10_0_0 - 1000 edge_16_10_0_0 <= 0
 inactive_no_flow_16_17_0_0: flow_16_17_0_0 - 1000 edge_16_17_0_0 <= 0
 inactive_no_flow_16_18_0_0: flow_16_18_0_0 - 1000 edge_16_18_0_0 <= 0
 inactive_no_flow_16_19_0_0: flow_16_19_0_0 - 1000 edge_16_19_0_0 <= 0
 inactive_no_flow_16_20_0_0: flow_16_20_0_0 - 1000 edge_16_20_0_0 <= 0
 inactive_no_flow_16_21_0_0: flow_16_21_0_0 - 1000 edge_16_21_0_0 <= 0
 inactive_no_flow_17_18_0_0: flow_17_18_0_0 - 1000 edge_17_18_0_0 <= 0
 inactive_no_flow_17_19_0_0: flow_17_19_0_0 - 1000 edge_17_19_0_0 <= 0
 inactive_no_flow_17_20_0_0: flow_17_20_0_0 - 1000 edge_17_20_0_0 <= 0
 inactive_no_flow_17_21_0_0: flow_17_21_0_0 - 1000 edge_17_21_0_0 <= 0
 inactive_no_flow_18_9_0_0: flow_18_9_0_0 - 1000 edge_18_9_0_0 <= 0
 inactive_no_flow_18_10_0_0: flow_18_10_0_0 - 1000 edge_18_10_0_0 <= 0
 inactive_no_flow_18_16_0_0: flow_18_16_0_0 - 1000 edge_18_16_0_0 <= 0
 inactive_no_flow_18_17_0_0: flow_18_17_0_0 - 1000 edge_18_17_0_0 <= 0
 inactive_no_flow_18_19_0_0: flow_18_19_0_0 - 1000 edge_18_19_0_0 <= 0
 inactive_no_flow_18_20_0_0: flow_18_20_0_0 - 1000 edge_18_20_0_0 <= 0
 inactive_no_flow_18_21_0_0: flow_18_21_0_0 - 1000 edge_18_21_0_0 <= 0
 inactive_no_flow_18_22_0_0: flow_18_22_0_0 - 1000 edge_18_22_0_0 <= 0
 inactive_no_flow_19_1_0_0: flow_19_1_0_0 - 1000 edge_19_1_0_0 <= 0
 inactive_no_flow_19_2_0_0: flow_19_2_0_0 - 1000 edge_19_2_0_0 <= 0
 inactive_no_flow_19_3_0_0: flow_19_3_0_0 - 1000 edge_19_3_0_0 <= 0
 inactive_no_flow_19_4_0_0: flow_19_4_0_0 - 1000 edge_19_4_0_0 <= 0
 inactive_no_flow_19_5_0_0: flow_19_5_0_0 - 1000 edge_19_5_0_0 <= 0
 inactive_no_flow_19_6_0_0: flow_19_6_0_0 - 1000 edge_19_6_0_0 <= 0
 inactive_no_flow_19_7_0_0: flow_19_7_0_0 - 1000 edge_19_7_0_0 <= 0
 inactive_no_flow_19_8_0_0: flow_19_8_0_0 - 1000 edge_19_8_0_0 <= 0
 inactive_no_flow_19_9_0_0: flow_19_9_0_0 - 1000 edge_19_9_0_0 <= 0
 inactive_no_flow_19_10_0_0: flow_19_10_0_0 - 1000 edge_19_10_0_0 <= 0
 inactive_no_flow_19_11_0_0: flow_19_11_0_0 - 1000 edge_19_11_0_0 <= 0
 inactive_no_flow_19_12_0_0: flow_19_12_0_0 - 1000 edge_19_12_0_0 <= 0
 inactive_no_flow_19_13_0_0: flow_19_13_0_0 - 1000 edge_19_13_0_0 <= 0
 inactive_no_flow_19_16_0_0: flow_19_16_0_0 - 1000 edge_19_16_0_0 <= 0
 inactive_no_flow_19_17_0_0: flow_19_17_0_0 - 1000 edge_19_17_0_0 <= 0
 inactive_no_flow_19_18_0_0: flow_19_18_0_0 - 1000 edge_19_18_0_0 <= 0
 inactive_no_flow_19_20_0_0: flow_19_20_0_0 - 1000 edge_19_20_0_0 <= 0
 inactive_no_flow_19_21_0_0: flow_19_21_0_0 - 1000 edge_19_21_0_0 <= 0
 inactive_no_flow_19_22_0_0: flow_19_22_0_0 - 1000 edge_19_22_0_0 <= 0
 inactive_no_flow_20_18_0_0: flow_20_18_0_0 - 1000 edge_20_18_0_0 <= 0
 inactive_no_flow_20_19_0_0: flow_20_19_0_0 - 1000 edge_20_19_0_0 <= 0
 inactive_no_flow_20_20_0_0: flow_20_20_0_0 - 1000 edge_20_20_0_0 <= 0
 inactive_no_flow_20_21_0_0: flow_20_21_0_0 - 1000 edge_20_21_0_0 <= 0
 inactive_no_flow_20_22_0_0: flow_20_22_0_0 - 1000 edge_20_22_0_0 <= 0
 inactive_no_flow_21_1_0_0: flow_21_1_0_0 - 1000 edge_21_1_0_0 <= 0
 inactive_no_flow_21_2_0_0: flow_21_2_0_0 - 1000 edge_21_2_0_0 <= 0
 inactive_no_flow_21_3_0_0: flow_21_3_0_0 - 1000 edge_21_3_0_0 <= 0
 inactive_no_flow_21_4_0_0: flow_21_4_0_0 - 1000 edge_21_4_0_0 <= 0
 inactive_no_flow_21_5_0_0: flow_21_5_0_0 - 1000 edge_21_5_0_0 <= 0
 inactive_no_flow_21_6_0_0: flow_21_6_0_0 - 1000 edge_21_6_0_0 <= 0
 inactive_no_flow_21_9_0_0: flow_21_9_0_0 - 1000 edge_21_9_0_0 <= 0
 inactive_no_flow_21_10_0_0: flow_21_10_0_0 - 1000 edge_21_10_0_0 <= 0
 inactive_no_flow_21_11_0_0: flow_21_11_0_0 - 1000 edge_21_11_0_0 <= 0
 inactive_no_flow_21_12_0_0: flow_21_12_0_0 - 1000 edge_21_12_0_0 <= 0
 inactive_no_flow_21_16_0_0: flow_21_16_0_0 - 1000 edge_21_16_0_0 <= 0
 inactive_no_flow_21_17_0_0: flow_21_17_0_0 - 1000 edge_21_17_0_0 <= 0
 inactive_no_flow_21_18_0_0: flow_21_18_0_0 - 1000 edge_21_18_0_0 <= 0
 inactive_no_flow_21_19_0_0: flow_21_19_0_0 - 1000 edge_21_19_0_0 <= 0
 inactive_no_flow_21_20_0_0: flow_21_20_0_0 - 1000 edge_21_20_0_0 <= 0
 inactive_no_flow_21_22_0_0: flow_21_22_0_0 - 1000 edge_21_22_0_0 <= 0
 inactive_no_flow_22_20_0_0: flow_22_20_0_0 - 1000 edge_22_20_0_0 <= 0
 inactive_no_flow_22_21_0_0: flow_22_21_0_0 - 1000 edge_22_21_0_0 <= 0
Bounds
Binaries
 edge_0_1_0_0 edge_0_2_0_0 edge_0_3_0_0 edge_0_4_0_0 edge_0_5_0_0
 edge_0_6_0_0 edge_0_7_0_0 edge_0_10_0_0 edge_0_12_0_0 edge_0_13_0_0
 edge_1_2_0_0 edge_1_3_0_0 edge_1_4_0_0 edge_1_5_0_0 edge_1_6_0_0
 edge_1_7_0_0 edge_1_8_0_0 edge_1_12_0_0 edge_1_13_0_0 edge_2_1_0_0
 edge_2_3_0_0 edge_2_4_0_0 edge_2_5_0_0 edge_2_6_0_0 edge_2_7_0_0
 edge_2_8_0_0 edge_2_11_0_0 edge_2_12_0_0 edge_2_13_0_0 edge_2_16_0_0
 edge_2_20_0_0 edge_2_21_0_0 edge_2_22_0_0 edge_3_1_0_0 edge_3_2_0_0
 edge_3_5_0_0 edge_4_1_0_0 edge_4_2_0_0 edge_4_3_0_0 edge_4_5_0_0
 edge_4_6_0_0 edge_4_7_0_0 edge_4_8_0_0 edge_4_9_0_0 edge_4_10_0_0
 edge_4_11_0_0 edge_4_12_0_0 edge_4_13_0_0 edge_4_16_0_0 edge_4_17_0_0
 edge_4_18_0_0 edge_4_20_0_0 edge_4_21_0_0 edge_4_22_0_0 edge_5_1_0_0
 edge_5_2_0_0 edge_5_3_0_0 edge_5_4_0_0 edge_5_6_0_0 edge_5_7_0_0
 edge_5_8_0_0 edge_5_9_0_0 edge_5_10_0_0 edge_5_11_0_0 edge_5_12_0_0
 edge_5_13_0_0 edge_5_16_0_0 edge_5_18_0_0 edge_5_19_0_0 edge_5_20_0_0
 edge_5_21_0_0 edge_5_22_0_0 edge_6_1_0_0 edge_6_2_0_0 edge_6_4_0_0
 edge_6_5_0_0 edge_6_7_0_0 edge_6_8_0_0 edge_6_9_0_0 edge_6_10_0_0
 edge_6_11_0_0 edge_6_12_0_0 edge_6_13_0_0 edge_6_16_0_0 edge_6_19_0_0
 edge_6_20_0_0 edge_6_22_0_0 edge_7_1_0_0 edge_7_2_0_0 edge_7_3_0_0
 edge_7_4_0_0 edge_7_5_0_0 edge_7_6_0_0 edge_7_8_0_0 edge_7_9_0_0
 edge_7_10_0_0 edge_7_11_0_0 edge_7_12_0_0 edge_7_13_0_0 edge_7_16_0_0
 edge_7_17_0_0 edge_7_18_0_0 edge_7_19_0_0 edge_7_20_0_0 edge_7_21_0_0
 edge_7_22_0_0 edge_8_12_0_0 edge_9_10_0_0 edge_9_13_0_0 edge_9_16_0_0
 edge_9_17_0_0 edge_9_18_0_0 edge_9_19_0_0 edge_9_20_0_0 edge_9_21_0_0
 edge_10_4_0_0 edge_10_5_0_0 edge_10_6_0_0 edge_10_7_0_0 edge_10_8_0_0
 edge_10_9_0_0 edge_10_12_0_0 edge_10_13_0_0 edge_10_16_0_0 edge_10_17_0_0
 edge_10_18_0_0 edge_10_19_0_0 edge_10_20_0_0 edge_10_21_0_0 edge_10_22_0_0
 edge_11_7_0_0 edge_11_12_0_0 edge_12_1_0_0 edge_12_2_0_0 edge_12_4_0_0
 edge_12_5_0_0 edge_12_6_0_0 edge_12_7_0_0 edge_12_8_0_0 edge_12_9_0_0
 edge_12_10_0_0 edge_12_11_0_0 edge_12_13_0_0 edge_12_16_0_0 edge_12_18_0_0
 edge_12_19_0_0 edge_12_22_0_0 edge_13_1_0_0 edge_13_2_0_0 edge_13_3_0_0
 edge_13_4_0_0 edge_13_5_0_0 edge_13_6_0_0 edge_13_7_0_0 edge_13_8_0_0
 edge_13_9_0_0 edge_13_10_0_0 edge_13_11_0_0 edge_13_12_0_0 edge_13_16_0_0
 edge_13_17_0_0 edge_13_18_0_0 edge_13_19_0_0 edge_13_20_0_0 edge_13_21_0_0
 edge_13_22_0_0 edge_16_9_0_0 edge_16_10_0_0 edge_16_17_0_0 edge_16_18_0_0
 edge_16_19_0_0 edge_16_20_0_0 edge_16_21_0_0 edge_17_18_0_0 edge_17_19_0_0
 edge_17_20_0_0 edge_17_21_0_0 edge_18_9_0_0 edge_18_10_0_0 edge_18_16_0_0
 edge_18_17_0_0 edge_18_19_0_0 edge_18_20_0_0 edge_18_21_0_0 edge_18_22_0_0
 edge_19_1_0_0 edge_19_2_0_0 edge_19_3_0_0 edge_19_4_0_0 edge_19_5_0_0
 edge_19_6_0_0 edge_19_7_0_0 edge_19_8_0_0 edge_19_9_0_0 edge_19_10_0_0
 edge_19_11_0_0 edge_19_12_0_0 edge_19_13_0_0 edge_19_16_0_0 edge_19_17_0_0
 edge_19_18_0_0 edge_19_20_0_0 edge_19_21_0_0 edge_19_22_0_0 edge_20_18_0_0
 edge_20_19_0_0 edge_20_20_0_0 edge_20_21_0_0 edge_20_22_0_0 edge_21_1_0_0
 edge_21_2_0_0 edge_21_3_0_0 edge_21_4_0_0 edge_21_5_0_0 edge_21_6_0_0
 edge_21_9_0_0 edge_21_10_0_0 edge_21_11_0_0 edge_21_12_0_0 edge_21_16_0_0
 edge_21_17_0_0 edge_21_18_0_0 edge_21_19_0_0 edge_21_20_0_0 edge_21_22_0_0
 edge_22_20_0_0 edge_22_21_0_0
End
